\ENCODING=ISO-8859-1
\Problem name: SacADos

Maximize
 obj: 3 x(1) + 9 x(2) + 9 x(3) + 9 x(4) + 9 x(5) + 9 x(6) + 9 x(7)
Subject To
 c1: 5 x(1) + 5 x(2) + 500 x(3) + 500 x(4) + 500 x(5) + 500 x(6) + 500 x(7)
     <= 100
Bounds
 0 <= x(1) <= 1
 0 <= x(2) <= 1
 0 <= x(3) <= 1
 0 <= x(4) <= 1
 0 <= x(5) <= 1
 0 <= x(6) <= 1
 0 <= x(7) <= 1
Binaries
 x(1)  x(2)  x(3)  x(4)  x(5)  x(6)  x(7) 
End
